nbProduits = 2;
 nbClients = 50;
 capaProd = [ 110 , 120 ];
 capaCrossdock = 400;
 demande = [
   [  18 ,   5 ,  31 ,  11 ,  47 ,   9 ,   0 ,   0 ,  26 ,  22 ,   0 ,  39 ,  34 ,  55 ,  38 ,   0 ,  19 ,   8 ,  32 ,  26 ,  30 ,  12 ,  16 ,  32 ,  58 ,  35 ,  44 ,  28 ,  40 ,   9 ,  29 ,  26 ,   0 ,  19 ,  33 ,  57 ,  24 ,  25 ,  47 ,  70 ,  51 ,  20 ,   7 ,  98 ,  80 ,   5 ,   9 ,   0 ,  33 ,  40 ] ,
   [  22 ,   0 ,  39 ,   8 ,  42 ,   6 ,  11 ,   8 ,   6 ,  13 ,  19 ,  37 ,  10 ,  14 ,   8 ,   7 ,  19 ,  29 ,  19 ,  15 ,  39 ,   0 ,  36 ,   0 ,  18 ,  16 ,  27 ,   9 ,  46 ,  23 ,  51 ,  10 ,  32 ,  15 ,  10 ,  25 ,  43 ,  13 ,  34 ,   7 ,  25 ,  33 ,   0 ,   7 ,  24 ,   0 ,   0 ,  11 ,  25 ,  29 ]
 ];
 a = [  4 ,  1 ,  5 ,  7 ,  2 ,  4 ,  5 ,  2 ,  6 ,  2 ,  7 ,  8 ,  3 , 10 ,  6 , 11 ,  2 ,  2 ,  5 ,  5 ,  5 ,  5 ,  5 ,  3 ,  3 ,  2 ,  6 ,  5 ,  3 ,  2 ,  1 ,  2 ,  3 ,  7 ,  5 ,  4 ,  2 ,  5 ,  3 ,  5 ,  3 ,  3 ,  8 ,  6 ,  4 ,  3 ,  7 ,  2 ,  4 ,  1 ];
 b = [  9 , 11 ,  8 , 10 , 11 , 10 ,  5 , 11 ,  9 ,  9 ,  9 ,  8 , 10 , 11 ,  8 , 11 , 11 ,  9 ,  8 , 10 ,  8 , 10 ,  8 ,  9 , 10 , 11 ,  8 , 10 , 10 , 11 , 11 , 11 ,  5 ,  9 ,  8 ,  9 , 11 , 11 ,  7 ,  8 , 10 ,  5 ,  8 ,  9 ,  9 ,  9 ,  9 ,  8 ,  6 ,  9 ];
 penalite = [ 12.1 , 2.5 , 8.4 , 5.8 , 15.4 , 12.2 , 12.8 , 7.7 , 10.8 , 13.4 , 19.3 , 4.3 , 19.4 , 3.8 , 14.7 , 4.2 , 14.0 , 4.6 , 2.2 , 13.2 , 19.4 , 14.5 , 9.0 , 9.2 , 14.2 , 14.9 , 16.8 , 4.9 , 6.3 , 9.1 , 8.1 , 19.4 , 8.5 , 8.5 , 11.7 , 2.5 , 2.8 , 4.6 , 5.8 , 6.3 , 15.2 , 5.0 , 2.6 , 8.7 , 12.0 , 18.4 , 11.5 , 6.5 , 2.1 , 21.3 ];
 coutStockUsine = [ 0.4 , 0.7 ];
 coutCamionUsine = [ 830.0 , 510.0 ];
 coutCamionClient = [ 370.0 , 30.0 , 370.0 , 40.0 , 290.0 , 300.0 , 220.0 , 370.0 , 230.0 , 330.0 , 310.0 , 320.0 , 10.0 , 20.0 , 130.0 , 270.0 , 50.0 , 60.0 , 240.0 , 170.0 , 120.0 , 20.0 , 50.0 , 20.0 , 300.0 , 140.0 , 340.0 , 30.0 , 140.0 , 50.0 , 320.0 , 70.0 , 50.0 , 900.0 , 200.0 , 80.0 , 260.0 , 140.0 , 80.0 , 200.0 , 260.0 , 210.0 , 50.0 , 160.0 , 170.0 , 120.0 , 90.0 , 50.0 , 300.0 , 50.0 ];
